lp_solve/compute_ilp/benchmarks/matmult.lp
Maximize

70 dSta_0 + 32 d0_36 + 34 d1_35.v0 + 34 d1_35.v1 + 4 d2_3.v00 + 4 d2_3.v01 + 4 d2_3.v10 + 4 d2_3.v11 + 34 d2_2.v00 + 34 d2_2.v01 + 34 d2_2.v10 + 34 d2_2.v11 + 35 d3_4.v0 + 35 d3_4.v1 + 2 d3_1.v0 + 2 d3_1.v1 + 33 d4_31 + 38 d5_30.v0 + 38 d5_30.v1 + 5 d6_7.v00 + 5 d6_7.v01 + 5 d6_7.v10 + 5 d6_7.v11 + 38 d6_6.v00 + 38 d6_6.v01 + 38 d6_6.v10 + 38 d6_6.v11 + 66 d7_8.v0 + 66 d7_8.v1 + 3 d7_5.v0 + 3 d7_5.v1 + 31 d8_20 + 5 d9_16.v0 + 5 d9_16.v1 + 108 d10_15.v00 + 48 d10_15.v01 + 78 d10_15.v10 + 48 d10_15.v11 + 4 d11_12.v000 + 4 d11_12.v001 + 4 d11_12.v010 + 4 d11_12.v011 + 4 d11_12.v100 + 4 d11_12.v101 + 4 d11_12.v110 + 4 d11_12.v111 + 108 d11_11.v000 + 48 d11_11.v001 + 78 d11_11.v010 + 48 d11_11.v011 + 78 d11_11.v100 + 48 d11_11.v101 + 78 d11_11.v110 + 48 d11_11.v111 + 5 d12_13.v00 + 5 d12_13.v01 + 5 d12_13.v10 + 5 d12_13.v11 + 5 d12_10.v00 + 5 d12_10.v01 + 5 d12_10.v10 + 5 d12_10.v11 + 33 d13_14.v0 + 33 d13_14.v1 + 2 d13_9.v0 + 2 d13_9.v1 + 108 d15_11.v00 + 78 d15_11.v01 + 78 d15_11.v10 + 78 d15_11.v11 + 4 d15_12.v00 + 4 d15_12.v01 + 4 d15_12.v10 + 4 d15_12.v11 + 108 d16_19.v0 + 78 d16_19.v1 + 4 d17_18.v00 + 4 d17_18.v01 + 4 d17_18.v10 + 4 d17_18.v11 + 108 d17_17.v00 + 48 d17_17.v01 + 78 d17_17.v10 + 48 d17_17.v11 + 5 d18_10.v0 + 5 d18_10.v1 + 5 d18_13.v0 + 5 d18_13.v1 + 108 d19_17.v0 + 78 d19_17.v1 + 4 d19_18.v0 + 4 d19_18.v1 + 34 d20_26 + 108 d21_25.v0 + 48 d21_25.v1 + 4 d22_23.v00 + 4 d22_23.v01 + 4 d22_23.v10 + 4 d22_23.v11 + 108 d22_22.v00 + 48 d22_22.v01 + 48 d22_22.v10 + 48 d22_22.v11 + 34 d23_24.v0 + 34 d23_24.v1 + 5 d23_21.v0 + 5 d23_21.v1 + 2 d24_9 + 33 d24_14 + 108 d25_22.v0 + 48 d25_22.v1 + 4 d25_23.v0 + 4 d25_23.v1 + 136 d26_29 + 33 d27_28.v0 + 33 d27_28.v1 + 108 d27_27.v0 + 48 d27_27.v1 + 5 d28_21 + 34 d28_24 + 108 d29_27 + 33 d29_28 + 38 d30_6.v0 + 38 d30_6.v1 + 5 d30_7.v0 + 5 d30_7.v1 + 66 d31_34 + 34 d32_33.v0 + 34 d32_33.v1 + 38 d32_32.v0 + 38 d32_32.v1 + 3 d33_5 + 66 d33_8 + 38 d34_32 + 34 d34_33 + 34 d35_2.v0 + 34 d35_2.v1 + 4 d35_3.v0 + 4 d35_3.v1 + 34 d36_39 + 33 d37_38.v0 + 33 d37_38.v1 + 34 d37_37.v0 + 34 d37_37.v1 + 2 d38_1 + 35 d38_4 + 34 d39_37 + 33 d39_38


Subject to


\ === tcfg constraints ===
dSta_0 = 1
b0 - d0_36 = 0
b0 - dSta_0 = 0
b1 - d1_35 = 0
b1 - d3_1 - d38_1 = 0
b2 - d2_3 - d2_2 = 0
b2 - d2_2 - d35_2 = 0
b3 - d3_4 - d3_1 = 0
b3 - d2_3 - d35_3 = 0
b4 - d4_31 = 0
b4 - d3_4 - d38_4 = 0
b5 - d5_30 = 0
b5 - d7_5 - d33_5 = 0
b6 - d6_7 - d6_6 = 0
b6 - d6_6 - d30_6 = 0
b7 - d7_8 - d7_5 = 0
b7 - d6_7 - d30_7 = 0
b8 - d8_20 = 0
b8 - d7_8 - d33_8 = 0
b9 - d9_16 = 0
b9 - d13_9 - d24_9 = 0
b10 - d10_15 = 0
b10 - d12_10 - d18_10 = 0
b11 - d11_12 - d11_11 = 0
b11 - d11_11 - d15_11 = 0
b12 - d12_13 - d12_10 = 0
b12 - d11_12 - d15_12 = 0
b13 - d13_14 - d13_9 = 0
b13 - d12_13 - d18_13 = 0
b14 - d13_14 - d24_14 = 0
b15 - d15_11 - d15_12 = 0
b15 - d10_15 = 0
b16 - d16_19 = 0
b16 - d9_16 = 0
b17 - d17_18 - d17_17 = 0
b17 - d17_17 - d19_17 = 0
b18 - d18_10 - d18_13 = 0
b18 - d17_18 - d19_18 = 0
b19 - d19_17 - d19_18 = 0
b19 - d16_19 = 0
b20 - d20_26 = 0
b20 - d8_20 = 0
b21 - d21_25 = 0
b21 - d23_21 - d28_21 = 0
b22 - d22_23 - d22_22 = 0
b22 - d22_22 - d25_22 = 0
b23 - d23_24 - d23_21 = 0
b23 - d22_23 - d25_23 = 0
b24 - d24_9 - d24_14 = 0
b24 - d23_24 - d28_24 = 0
b25 - d25_22 - d25_23 = 0
b25 - d21_25 = 0
b26 - d26_29 = 0
b26 - d20_26 = 0
b27 - d27_28 - d27_27 = 0
b27 - d27_27 - d29_27 = 0
b28 - d28_21 - d28_24 = 0
b28 - d27_28 - d29_28 = 0
b29 - d29_27 - d29_28 = 0
b29 - d26_29 = 0
b30 - d30_6 - d30_7 = 0
b30 - d5_30 = 0
b31 - d31_34 = 0
b31 - d4_31 = 0
b32 - d32_33 - d32_32 = 0
b32 - d32_32 - d34_32 = 0
b33 - d33_5 - d33_8 = 0
b33 - d32_33 - d34_33 = 0
b34 - d34_32 - d34_33 = 0
b34 - d31_34 = 0
b35 - d35_2 - d35_3 = 0
b35 - d1_35 = 0
b36 - d36_39 = 0
b36 - d0_36 = 0
b37 - d37_38 - d37_37 = 0
b37 - d37_37 - d39_37 = 0
b38 - d38_1 - d38_4 = 0
b38 - d37_38 - d39_38 = 0
b39 - d39_37 - d39_38 = 0
b39 - d36_39 = 0


\ === context constraints ===

\(a)
d1_35 - d1_35.v0 - d1_35.v1 = 0
d2_3 - d2_3.v00 - d2_3.v01 - d2_3.v10 - d2_3.v11 = 0
d2_2 - d2_2.v00 - d2_2.v01 - d2_2.v10 - d2_2.v11 = 0
d3_4 - d3_4.v0 - d3_4.v1 = 0
d3_1 - d3_1.v0 - d3_1.v1 = 0
d5_30 - d5_30.v0 - d5_30.v1 = 0
d6_7 - d6_7.v00 - d6_7.v01 - d6_7.v10 - d6_7.v11 = 0
d6_6 - d6_6.v00 - d6_6.v01 - d6_6.v10 - d6_6.v11 = 0
d7_8 - d7_8.v0 - d7_8.v1 = 0
d7_5 - d7_5.v0 - d7_5.v1 = 0
d9_16 - d9_16.v0 - d9_16.v1 = 0
d10_15 - d10_15.v00 - d10_15.v01 - d10_15.v10 - d10_15.v11 = 0
d11_12 - d11_12.v000 - d11_12.v001 - d11_12.v010 - d11_12.v011 - d11_12.v100 - d11_12.v101 - d11_12.v110 - d11_12.v111 = 0
d11_11 - d11_11.v000 - d11_11.v001 - d11_11.v010 - d11_11.v011 - d11_11.v100 - d11_11.v101 - d11_11.v110 - d11_11.v111 = 0
d12_13 - d12_13.v00 - d12_13.v01 - d12_13.v10 - d12_13.v11 = 0
d12_10 - d12_10.v00 - d12_10.v01 - d12_10.v10 - d12_10.v11 = 0
d13_14 - d13_14.v0 - d13_14.v1 = 0
d13_9 - d13_9.v0 - d13_9.v1 = 0
d15_11 - d15_11.v00 - d15_11.v01 - d15_11.v10 - d15_11.v11 = 0
d15_12 - d15_12.v00 - d15_12.v01 - d15_12.v10 - d15_12.v11 = 0
d16_19 - d16_19.v0 - d16_19.v1 = 0
d17_18 - d17_18.v00 - d17_18.v01 - d17_18.v10 - d17_18.v11 = 0
d17_17 - d17_17.v00 - d17_17.v01 - d17_17.v10 - d17_17.v11 = 0
d18_10 - d18_10.v0 - d18_10.v1 = 0
d18_13 - d18_13.v0 - d18_13.v1 = 0
d19_17 - d19_17.v0 - d19_17.v1 = 0
d19_18 - d19_18.v0 - d19_18.v1 = 0
d21_25 - d21_25.v0 - d21_25.v1 = 0
d22_23 - d22_23.v00 - d22_23.v01 - d22_23.v10 - d22_23.v11 = 0
d22_22 - d22_22.v00 - d22_22.v01 - d22_22.v10 - d22_22.v11 = 0
d23_24 - d23_24.v0 - d23_24.v1 = 0
d23_21 - d23_21.v0 - d23_21.v1 = 0
d25_22 - d25_22.v0 - d25_22.v1 = 0
d25_23 - d25_23.v0 - d25_23.v1 = 0
d27_28 - d27_28.v0 - d27_28.v1 = 0
d27_27 - d27_27.v0 - d27_27.v1 = 0
d30_6 - d30_6.v0 - d30_6.v1 = 0
d30_7 - d30_7.v0 - d30_7.v1 = 0
d32_33 - d32_33.v0 - d32_33.v1 = 0
d32_32 - d32_32.v0 - d32_32.v1 = 0
d35_2 - d35_2.v0 - d35_2.v1 = 0
d35_3 - d35_3.v0 - d35_3.v1 = 0
d37_38 - d37_38.v0 - d37_38.v1 = 0
d37_37 - d37_37.v0 - d37_37.v1 = 0

\(b)
b1.v0 - d1_35.v0 = 0
b1.v1 - d1_35.v1 = 0
b2.v00 - d2_3.v00 - d2_2.v00 = 0
b2.v01 - d2_3.v01 - d2_2.v01 = 0
b2.v10 - d2_3.v10 - d2_2.v10 = 0
b2.v11 - d2_3.v11 - d2_2.v11 = 0
b3.v0 - d3_4.v0 - d3_1.v0 = 0
b3.v1 - d3_4.v1 - d3_1.v1 = 0
b5.v0 - d5_30.v0 = 0
b5.v1 - d5_30.v1 = 0
b6.v00 - d6_7.v00 - d6_6.v00 = 0
b6.v01 - d6_7.v01 - d6_6.v01 = 0
b6.v10 - d6_7.v10 - d6_6.v10 = 0
b6.v11 - d6_7.v11 - d6_6.v11 = 0
b7.v0 - d7_8.v0 - d7_5.v0 = 0
b7.v1 - d7_8.v1 - d7_5.v1 = 0
b9.v0 - d9_16.v0 = 0
b9.v1 - d9_16.v1 = 0
b10.v00 - d10_15.v00 = 0
b10.v01 - d10_15.v01 = 0
b10.v10 - d10_15.v10 = 0
b10.v11 - d10_15.v11 = 0
b11.v000 - d11_12.v000 - d11_11.v000 = 0
b11.v001 - d11_12.v001 - d11_11.v001 = 0
b11.v010 - d11_12.v010 - d11_11.v010 = 0
b11.v011 - d11_12.v011 - d11_11.v011 = 0
b11.v100 - d11_12.v100 - d11_11.v100 = 0
b11.v101 - d11_12.v101 - d11_11.v101 = 0
b11.v110 - d11_12.v110 - d11_11.v110 = 0
b11.v111 - d11_12.v111 - d11_11.v111 = 0
b12.v00 - d12_13.v00 - d12_10.v00 = 0
b12.v01 - d12_13.v01 - d12_10.v01 = 0
b12.v10 - d12_13.v10 - d12_10.v10 = 0
b12.v11 - d12_13.v11 - d12_10.v11 = 0
b13.v0 - d13_14.v0 - d13_9.v0 = 0
b13.v1 - d13_14.v1 - d13_9.v1 = 0
b15.v00 - d15_11.v00 - d15_12.v00 = 0
b15.v01 - d15_11.v01 - d15_12.v01 = 0
b15.v10 - d15_11.v10 - d15_12.v10 = 0
b15.v11 - d15_11.v11 - d15_12.v11 = 0
b16.v0 - d16_19.v0 = 0
b16.v1 - d16_19.v1 = 0
b17.v00 - d17_18.v00 - d17_17.v00 = 0
b17.v01 - d17_18.v01 - d17_17.v01 = 0
b17.v10 - d17_18.v10 - d17_17.v10 = 0
b17.v11 - d17_18.v11 - d17_17.v11 = 0
b18.v0 - d18_10.v0 - d18_13.v0 = 0
b18.v1 - d18_10.v1 - d18_13.v1 = 0
b19.v0 - d19_17.v0 - d19_18.v0 = 0
b19.v1 - d19_17.v1 - d19_18.v1 = 0
b21.v0 - d21_25.v0 = 0
b21.v1 - d21_25.v1 = 0
b22.v00 - d22_23.v00 - d22_22.v00 = 0
b22.v01 - d22_23.v01 - d22_22.v01 = 0
b22.v10 - d22_23.v10 - d22_22.v10 = 0
b22.v11 - d22_23.v11 - d22_22.v11 = 0
b23.v0 - d23_24.v0 - d23_21.v0 = 0
b23.v1 - d23_24.v1 - d23_21.v1 = 0
b25.v0 - d25_22.v0 - d25_23.v0 = 0
b25.v1 - d25_22.v1 - d25_23.v1 = 0
b27.v0 - d27_28.v0 - d27_27.v0 = 0
b27.v1 - d27_28.v1 - d27_27.v1 = 0
b30.v0 - d30_6.v0 - d30_7.v0 = 0
b30.v1 - d30_6.v1 - d30_7.v1 = 0
b32.v0 - d32_33.v0 - d32_32.v0 = 0
b32.v1 - d32_33.v1 - d32_32.v1 = 0
b35.v0 - d35_2.v0 - d35_3.v0 = 0
b35.v1 - d35_2.v1 - d35_3.v1 = 0
b37.v0 - d37_38.v0 - d37_37.v0 = 0
b37.v1 - d37_38.v1 - d37_37.v1 = 0

\(c)
b1 - b1.v0 - b1.v1 = 0
b2 - b2.v00 - b2.v01 - b2.v10 - b2.v11 = 0
b3 - b3.v0 - b3.v1 = 0
b5 - b5.v0 - b5.v1 = 0
b6 - b6.v00 - b6.v01 - b6.v10 - b6.v11 = 0
b7 - b7.v0 - b7.v1 = 0
b9 - b9.v0 - b9.v1 = 0
b10 - b10.v00 - b10.v01 - b10.v10 - b10.v11 = 0
b11 - b11.v000 - b11.v001 - b11.v010 - b11.v011 - b11.v100 - b11.v101 - b11.v110 - b11.v111 = 0
b12 - b12.v00 - b12.v01 - b12.v10 - b12.v11 = 0
b13 - b13.v0 - b13.v1 = 0
b15 - b15.v00 - b15.v01 - b15.v10 - b15.v11 = 0
b16 - b16.v0 - b16.v1 = 0
b17 - b17.v00 - b17.v01 - b17.v10 - b17.v11 = 0
b18 - b18.v0 - b18.v1 = 0
b19 - b19.v0 - b19.v1 = 0
b21 - b21.v0 - b21.v1 = 0
b22 - b22.v00 - b22.v01 - b22.v10 - b22.v11 = 0
b23 - b23.v0 - b23.v1 = 0
b25 - b25.v0 - b25.v1 = 0
b27 - b27.v0 - b27.v1 = 0
b30 - b30.v0 - b30.v1 = 0
b32 - b32.v0 - b32.v1 = 0
b35 - b35.v0 - b35.v1 = 0
b37 - b37.v0 - b37.v1 = 0

\(d)
b2.v00 - d35_2.v0 = 0
b2.v10 - d35_2.v1 = 0
b1.v0 - d38_1 = 0
b6.v00 - d30_6.v0 = 0
b6.v10 - d30_6.v1 = 0
b5.v0 - d33_5 = 0
b11.v000 - d15_11.v00 = 0
b11.v010 - d15_11.v01 = 0
b11.v100 - d15_11.v10 = 0
b11.v110 - d15_11.v11 = 0
b10.v00 - d18_10.v0 = 0
b10.v10 - d18_10.v1 = 0
b9.v0 - d24_9 = 0
b17.v00 - d19_17.v0 = 0
b17.v10 - d19_17.v1 = 0
b22.v00 - d25_22.v0 = 0
b22.v10 - d25_22.v1 = 0
b21.v0 - d28_21 = 0
b27.v0 - d29_27 = 0
b32.v0 - d34_32 = 0
b37.v0 - d39_37 = 0

\(e)
b2.v01 - d2_2.v00 - d2_2.v01 = 0
b2.v01 - 22 d2_2.v00 <= 0
b2.v11 - d2_2.v10 - d2_2.v11 = 0
b2.v11 - 22 d2_2.v10 <= 0
b1.v1 - d3_1.v0 - d3_1.v1 = 0
b1.v1 - 22 d3_1.v0 <= 0
b6.v01 - d6_6.v00 - d6_6.v01 = 0
b6.v01 - 22 d6_6.v00 <= 0
b6.v11 - d6_6.v10 - d6_6.v11 = 0
b6.v11 - 22 d6_6.v10 <= 0
b5.v1 - d7_5.v0 - d7_5.v1 = 0
b5.v1 - 22 d7_5.v0 <= 0
b11.v001 - d11_11.v000 - d11_11.v001 = 0
b11.v001 - 22 d11_11.v000 <= 0
b11.v011 - d11_11.v010 - d11_11.v011 = 0
b11.v011 - 22 d11_11.v010 <= 0
b11.v101 - d11_11.v100 - d11_11.v101 = 0
b11.v101 - 22 d11_11.v100 <= 0
b11.v111 - d11_11.v110 - d11_11.v111 = 0
b11.v111 - 22 d11_11.v110 <= 0
b10.v01 - d12_10.v00 - d12_10.v01 = 0
b10.v01 - 22 d12_10.v00 <= 0
b10.v11 - d12_10.v10 - d12_10.v11 = 0
b10.v11 - 22 d12_10.v10 <= 0
b9.v1 - d13_9.v0 - d13_9.v1 = 0
b9.v1 - 22 d13_9.v0 <= 0
b17.v01 - d17_17.v00 - d17_17.v01 = 0
b17.v01 - 22 d17_17.v00 <= 0
b17.v11 - d17_17.v10 - d17_17.v11 = 0
b17.v11 - 22 d17_17.v10 <= 0
b22.v01 - d22_22.v00 - d22_22.v01 = 0
b22.v01 - 22 d22_22.v00 <= 0
b22.v11 - d22_22.v10 - d22_22.v11 = 0
b22.v11 - 22 d22_22.v10 <= 0
b21.v1 - d23_21.v0 - d23_21.v1 = 0
b21.v1 - 22 d23_21.v0 <= 0
b27.v1 - d27_27.v0 - d27_27.v1 = 0
b27.v1 - 22 d27_27.v0 <= 0
b32.v1 - d32_32.v0 - d32_32.v1 = 0
b32.v1 - 22 d32_32.v0 <= 0
b37.v1 - d37_37.v0 - d37_37.v1 = 0
b37.v1 - 22 d37_37.v0 <= 0

\(f)
d2_3.v0 - d2_3.v00 - d2_3.v01 = 0
d2_3.v1 - d2_3.v10 - d2_3.v11 = 0
d3_4 - d3_4.v0 - d3_4.v1 = 0
d6_7.v0 - d6_7.v00 - d6_7.v01 = 0
d6_7.v1 - d6_7.v10 - d6_7.v11 = 0
d7_8 - d7_8.v0 - d7_8.v1 = 0
d11_12.v00 - d11_12.v000 - d11_12.v001 = 0
d11_12.v01 - d11_12.v010 - d11_12.v011 = 0
d11_12.v10 - d11_12.v100 - d11_12.v101 = 0
d11_12.v11 - d11_12.v110 - d11_12.v111 = 0
d12_13.v0 - d12_13.v00 - d12_13.v01 = 0
d12_13.v1 - d12_13.v10 - d12_13.v11 = 0
d13_14 - d13_14.v0 - d13_14.v1 = 0
d17_18.v0 - d17_18.v00 - d17_18.v01 = 0
d17_18.v1 - d17_18.v10 - d17_18.v11 = 0
d22_23.v0 - d22_23.v00 - d22_23.v01 = 0
d22_23.v1 - d22_23.v10 - d22_23.v11 = 0
d23_24 - d23_24.v0 - d23_24.v1 = 0
d27_28 - d27_28.v0 - d27_28.v1 = 0
d32_33 - d32_33.v0 - d32_33.v1 = 0
d37_38 - d37_38.v0 - d37_38.v1 = 0

\(g)
b3.v0 - d2_3.v0 - d35_3.v0 = 0
b3.v1 - d2_3.v1 - d35_3.v1 = 0
b7.v0 - d6_7.v0 - d30_7.v0 = 0
b7.v1 - d6_7.v1 - d30_7.v1 = 0
b12.v00 - d11_12.v00 - d15_12.v00 = 0
b12.v01 - d11_12.v01 - d15_12.v01 = 0
b12.v10 - d11_12.v10 - d15_12.v10 = 0
b12.v11 - d11_12.v11 - d15_12.v11 = 0
b13.v0 - d12_13.v0 - d18_13.v0 = 0
b13.v1 - d12_13.v1 - d18_13.v1 = 0
b15.v00 - d10_15.v00 = 0
b15.v01 - d10_15.v01 = 0
b15.v10 - d10_15.v10 = 0
b15.v11 - d10_15.v11 = 0
b16.v0 - d9_16.v0 = 0
b16.v1 - d9_16.v1 = 0
b18.v0 - d17_18.v0 - d19_18.v0 = 0
b18.v1 - d17_18.v1 - d19_18.v1 = 0
b19.v0 - d16_19.v0 = 0
b19.v1 - d16_19.v1 = 0
b23.v0 - d22_23.v0 - d25_23.v0 = 0
b23.v1 - d22_23.v1 - d25_23.v1 = 0
b25.v0 - d21_25.v0 = 0
b25.v1 - d21_25.v1 = 0
b30.v0 - d5_30.v0 = 0
b30.v1 - d5_30.v1 = 0
b35.v0 - d1_35.v0 = 0
b35.v1 - d1_35.v1 = 0

\ === header constraints ===
b0 <= 1
b2 - 23 b1 <= 0
b2 - 23 d35_2 <= 0
b1 - 23 b0 <= 0
b1 - 23 d38_1 <= 0
b6 - 23 b5 <= 0
b6 - 23 d30_6 <= 0
b5 - 23 b0 <= 0
b5 - 23 d33_5 <= 0
b11 - 23 b10 <= 0
b11 - 23 d15_11 <= 0
b10 - 23 b9 <= 0
b10 - 23 d18_10 <= 0
b9 - 23 b0 <= 0
b9 - 23 d24_9 <= 0
b17 - 23 b9 <= 0
b17 - 23 d19_17 <= 0
b22 - 23 b21 <= 0
b22 - 23 d25_22 <= 0
b21 - 23 b0 <= 0
b21 - 23 d28_21 <= 0
b27 - 23 b0 <= 0
b27 - 23 d29_27 <= 0
b32 - 23 b0 <= 0
b32 - 23 d34_32 <= 0
b37 - 23 b0 <= 0
b37 - 23 d39_37 <= 0

Generals

Sta
b0
d0_36
b1
d1_35
b2
d2_3
d2_2
b3
d3_4
d3_1
b4
d4_31
b5
d5_30
b6
d6_7
d6_6
b7
d7_8
d7_5
b8
d8_20
b9
d9_16
b10
d10_15
b11
d11_12
d11_11
b12
d12_13
d12_10
b13
d13_14
d13_9
b14
b15
d15_11
d15_12
b16
d16_19
b17
d17_18
d17_17
b18
d18_10
d18_13
b19
d19_17
d19_18
b20
d20_26
b21
d21_25
b22
d22_23
d22_22
b23
d23_24
d23_21
b24
d24_9
d24_14
b25
d25_22
d25_23
b26
d26_29
b27
d27_28
d27_27
b28
d28_21
d28_24
b29
d29_27
d29_28
b30
d30_6
d30_7
b31
d31_34
b32
d32_33
d32_32
b33
d33_5
d33_8
b34
d34_32
d34_33
b35
d35_2
d35_3
b36
d36_39
b37
d37_38
d37_37
b38
d38_1
d38_4
b39
d39_37
d39_38
b0.d0
b2.d0
b6.d0
b6.d1
b11.d0
b11.d1
b11.d2
b11.d3
b15.d0
b15.d1
b15.d2
b15.d3
b17.d0
b17.d1
b17.d2
b17.d3
b19.d0
b19.d1
b19.d2
b19.d3
b22.d0
b22.d1
b22.d2
b22.d3
b25.d0
b25.d1
b25.d2
b25.d3
b27.d0
b27.d1
b27.d2
b27.d3
b29.d0
b29.d1
b29.d2
b29.d3
b30.d0
b30.d1
b32.d0
b32.d1
b34.d0
b34.d1
b35.d0
b37.d0
b39.d0
d0_36
d1_35.v0
d1_35.v1
d2_3.v00
d2_3.v01
d2_3.v10
d2_3.v11
d2_2.v00
d2_2.v01
d2_2.v10
d2_2.v11
d3_4.v0
d3_4.v1
d3_1.v0
d3_1.v1
d4_31
d5_30.v0
d5_30.v1
d6_7.v00
d6_7.v01
d6_7.v10
d6_7.v11
d6_6.v00
d6_6.v01
d6_6.v10
d6_6.v11
d7_8.v0
d7_8.v1
d7_5.v0
d7_5.v1
d8_20
d9_16.v0
d9_16.v1
d10_15.v00
d10_15.v01
d10_15.v10
d10_15.v11
d11_12.v000
d11_12.v001
d11_12.v010
d11_12.v011
d11_12.v100
d11_12.v101
d11_12.v110
d11_12.v111
d11_11.v000
d11_11.v001
d11_11.v010
d11_11.v011
d11_11.v100
d11_11.v101
d11_11.v110
d11_11.v111
d12_13.v00
d12_13.v01
d12_13.v10
d12_13.v11
d12_10.v00
d12_10.v01
d12_10.v10
d12_10.v11
d13_14.v0
d13_14.v1
d13_9.v0
d13_9.v1
d15_11.v00
d15_11.v01
d15_11.v10
d15_11.v11
d15_12.v00
d15_12.v01
d15_12.v10
d15_12.v11
d16_19.v0
d16_19.v1
d17_18.v00
d17_18.v01
d17_18.v10
d17_18.v11
d17_17.v00
d17_17.v01
d17_17.v10
d17_17.v11
d18_10.v0
d18_10.v1
d18_13.v0
d18_13.v1
d19_17.v0
d19_17.v1
d19_18.v0
d19_18.v1
d20_26
d21_25.v0
d21_25.v1
d22_23.v00
d22_23.v01
d22_23.v10
d22_23.v11
d22_22.v00
d22_22.v01
d22_22.v10
d22_22.v11
d23_24.v0
d23_24.v1
d23_21.v0
d23_21.v1
d24_9
d24_14
d25_22.v0
d25_22.v1
d25_23.v0
d25_23.v1
d26_29
d27_28.v0
d27_28.v1
d27_27.v0
d27_27.v1
d28_21
d28_24
d29_27
d29_28
d30_6.v0
d30_6.v1
d30_7.v0
d30_7.v1
d31_34
d32_33.v0
d32_33.v1
d32_32.v0
d32_32.v1
d33_5
d33_8
d34_32
d34_33
d35_2.v0
d35_2.v1
d35_3.v0
d35_3.v1
d36_39
d37_38.v0
d37_38.v1
d37_37.v0
d37_37.v1
d38_1
d38_4
d39_37
d39_38

End
\ total_cons: 357 	total_vars: 151
