lp_solve/result/matmult.res
set_XLI: Successfully loaded './xli_CPLEX'

Value of objective function: 746246

Actual values of the variables:
dSta_0                          1
d0_36                           1
d1_35.v0                        1
d1_35.v1                       22
d2_3.v00                        0
d2_3.v01                        1
d2_3.v10                        0
d2_3.v11                       22
d2_2.v00                        1
d2_2.v01                       21
d2_2.v10                       22
d2_2.v11                      462
d3_4.v0                         0
d3_4.v1                         1
d3_1.v0                         1
d3_1.v1                        21
d4_31                           1
d5_30.v0                        1
d5_30.v1                       22
d6_7.v00                        0
d6_7.v01                        1
d6_7.v10                        0
d6_7.v11                       22
d6_6.v00                        1
d6_6.v01                       21
d6_6.v10                       22
d6_6.v11                      462
d7_8.v0                         0
d7_8.v1                         1
d7_5.v0                         1
d7_5.v1                        21
d8_20                           1
d9_16.v0                        1
d9_16.v1                       22
d10_15.v00                      1
d10_15.v01                     22
d10_15.v10                     22
d10_15.v11                    484
d11_12.v000                     0
d11_12.v001                     1
d11_12.v010                     0
d11_12.v011                    22
d11_12.v100                     0
d11_12.v101                    22
d11_12.v110                     0
d11_12.v111                   484
d11_11.v000                     1
d11_11.v001                    21
d11_11.v010                    22
d11_11.v011                   462
d11_11.v100                    22
d11_11.v101                   462
d11_11.v110                   484
d11_11.v111                 10164
d12_13.v00                      0
d12_13.v01                      1
d12_13.v10                      0
d12_13.v11                     22
d12_10.v00                      1
d12_10.v01                     21
d12_10.v10                     22
d12_10.v11                    462
d13_14.v0                       0
d13_14.v1                       1
d13_9.v0                        1
d13_9.v1                       21
d15_11.v00                      1
d15_11.v01                     22
d15_11.v10                     22
d15_11.v11                    484
d15_12.v00                      0
d15_12.v01                      0
d15_12.v10                      0
d15_12.v11                      0
d16_19.v0                       1
d16_19.v1                      22
d17_18.v00                      0
d17_18.v01                      1
d17_18.v10                      0
d17_18.v11                     22
d17_17.v00                      1
d17_17.v01                     21
d17_17.v10                     22
d17_17.v11                    462
d18_10.v0                       1
d18_10.v1                      22
d18_13.v0                       0
d18_13.v1                       0
d19_17.v0                       1
d19_17.v1                      22
d19_18.v0                       0
d19_18.v1                       0
d20_26                          1
d21_25.v0                       1
d21_25.v1                      22
d22_23.v00                      0
d22_23.v01                      1
d22_23.v10                      0
d22_23.v11                     22
d22_22.v00                      1
d22_22.v01                     21
d22_22.v10                     22
d22_22.v11                    462
d23_24.v0                       0
d23_24.v1                       1
d23_21.v0                       1
d23_21.v1                      21
d24_9                           1
d24_14                          0
d25_22.v0                       1
d25_22.v1                      22
d25_23.v0                       0
d25_23.v1                       0
d26_29                          1
d27_28.v0                       0
d27_28.v1                       1
d27_27.v0                       1
d27_27.v1                      21
d28_21                          1
d28_24                          0
d29_27                          1
d29_28                          0
d30_6.v0                        1
d30_6.v1                       22
d30_7.v0                        0
d30_7.v1                        0
d31_34                          1
d32_33.v0                       0
d32_33.v1                       1
d32_32.v0                       1
d32_32.v1                      21
d33_5                           1
d33_8                           0
d34_32                          1
d34_33                          0
d35_2.v0                        1
d35_2.v1                       22
d35_3.v0                        0
d35_3.v1                        0
d36_39                          1
d37_38.v0                       0
d37_38.v1                       1
d37_37.v0                       1
d37_37.v1                      21
d38_1                           1
d38_4                           0
d39_37                          1
d39_38                          0
b0                              1
b1                             23
d1_35                          23
d3_1                           22
b2                            529
d2_3                           23
d2_2                          506
d35_2                          23
b3                             23
d3_4                            1
d35_3                           0
b4                              1
b5                             23
d5_30                          23
d7_5                           22
b6                            529
d6_7                           23
d6_6                          506
d30_6                          23
b7                             23
d7_8                            1
d30_7                           0
b8                              1
b9                             23
d9_16                          23
d13_9                          22
b10                           529
d10_15                        529
d12_10                        506
d18_10                         23
b11                         12167
d11_12                        529
d11_11                      11638
d15_11                        529
b12                           529
d12_13                         23
d15_12                          0
b13                            23
d13_14                          1
d18_13                          0
b14                             1
b15                           529
b16                            23
d16_19                         23
b17                           529
d17_18                         23
d17_17                        506
d19_17                         23
b18                            23
d19_18                          0
b19                            23
b20                             1
b21                            23
d21_25                         23
d23_21                         22
b22                           529
d22_23                         23
d22_22                        506
d25_22                         23
b23                            23
d23_24                          1
d25_23                          0
b24                             1
b25                            23
b26                             1
b27                            23
d27_28                          1
d27_27                         22
b28                             1
b29                             1
b30                            23
b31                             1
b32                            23
d32_33                          1
d32_32                         22
b33                             1
b34                             1
b35                            23
b36                             1
b37                            23
d37_38                          1
d37_37                         22
b38                             1
b39                             1
b1.v0                           1
b1.v1                          22
b2.v00                          1
b2.v01                         22
b2.v10                         22
b2.v11                        484
b3.v0                           1
b3.v1                          22
b5.v0                           1
b5.v1                          22
b6.v00                          1
b6.v01                         22
b6.v10                         22
b6.v11                        484
b7.v0                           1
b7.v1                          22
b9.v0                           1
b9.v1                          22
b10.v00                         1
b10.v01                        22
b10.v10                        22
b10.v11                       484
b11.v000                        1
b11.v001                       22
b11.v010                       22
b11.v011                      484
b11.v100                       22
b11.v101                      484
b11.v110                      484
b11.v111                    10648
b12.v00                         1
b12.v01                        22
b12.v10                        22
b12.v11                       484
b13.v0                          1
b13.v1                         22
b15.v00                         1
b15.v01                        22
b15.v10                        22
b15.v11                       484
b16.v0                          1
b16.v1                         22
b17.v00                         1
b17.v01                        22
b17.v10                        22
b17.v11                       484
b18.v0                          1
b18.v1                         22
b19.v0                          1
b19.v1                         22
b21.v0                          1
b21.v1                         22
b22.v00                         1
b22.v01                        22
b22.v10                        22
b22.v11                       484
b23.v0                          1
b23.v1                         22
b25.v0                          1
b25.v1                         22
b27.v0                          1
b27.v1                         22
b30.v0                          1
b30.v1                         22
b32.v0                          1
b32.v1                         22
b35.v0                          1
b35.v1                         22
b37.v0                          1
b37.v1                         22
d2_3.v0                         1
d2_3.v1                        22
d6_7.v0                         1
d6_7.v1                        22
d11_12.v00                      1
d11_12.v01                     22
d11_12.v10                     22
d11_12.v11                    484
d12_13.v0                       1
d12_13.v1                      22
d17_18.v0                       1
d17_18.v1                      22
d22_23.v0                       1
d22_23.v1                      22
